; benchmark generated from python API
(set-info :status unknown)
(declare-fun |__fml:a:1| () Bool)
(declare-fun |__fml:a:2| () Bool)
(declare-fun |__new_fml:a_a:1| () Bool)
(declare-fun |__new_fml:a_a:2| () Bool)
(declare-fun |__fml:a:0| () Bool)
(declare-fun |__new_fml:a_a:0| () Bool)
(declare-fun |__fml:r:2| () Bool)
(declare-fun |__new_fml:r_a:2| () Bool)
(declare-fun |__fml:r:0| () Bool)
(declare-fun |__new_fml:r_a:0| () Bool)
(declare-fun |__fml:r:1| () Bool)
(declare-fun |__new_fml:r_a:1| () Bool)
(declare-fun |__fml:s:2| () Bool)
(declare-fun |__new_fml:s_a:2| () Bool)
(declare-fun |__fml:s:0| () Bool)
(declare-fun |__new_fml:s_a:0| () Bool)
(declare-fun |__fml:s:1| () Bool)
(declare-fun |__new_fml:s_a:1| () Bool)
(declare-fun |r_W_10.assigned:1| () Bool)
(declare-fun |r_W_10.assigned:2| () Bool)
(declare-fun |r_W_10.assigned:0| () Bool)
(declare-fun r_S_11.has_flit () Bool)
(declare-fun r_W_10.has_flit () Bool)
(declare-fun r_PE_10.ready () Bool)
(declare-fun r_PE_10.has_flit () Bool)
(assert
 (let (($x73 (and (and |__new_fml:a_a:2| (and |__new_fml:a_a:1| true)) (and |__fml:a:2| (and |__fml:a:1| true)))))
 (let (($x180 (and (= |__new_fml:a_a:2| |__fml:a:2|) (= |__new_fml:a_a:1| |__fml:a:1|) (= |__new_fml:a_a:0| |__fml:a:0|))))
 (let (($x62 (and (= |__new_fml:r_a:2| |__fml:r:2|) (= |__new_fml:r_a:1| |__fml:r:1|) (= |__new_fml:r_a:0| |__fml:r:0|))))
 (let (($x28 (and (= |__new_fml:s_a:2| |__fml:s:2|) (= |__new_fml:s_a:1| |__fml:s:1|) (= |__new_fml:s_a:0| |__fml:s:0|))))
 (let (($x307 (and |r_W_10.assigned:2| (and |r_W_10.assigned:1| true))))
 (let (($x168 (= |r_W_10.assigned:1| false)))
 (let (($x221 (or (and (= |r_W_10.assigned:2| true) $x168 (= |r_W_10.assigned:0| true)) (and $x307 (and true (and false true))))))
 (let (($x189 (and (= |r_W_10.assigned:2| false) $x168 (= |r_W_10.assigned:0| false))))
 (let (($x18 (or $x189 (and $x307 (and false (and false true))))))
 (and (not (and r_W_10.has_flit $x18 r_S_11.has_flit $x221)) r_PE_10.has_flit r_PE_10.ready r_W_10.has_flit $x18 r_S_11.has_flit $x221 (or $x28 (and (and |__new_fml:s_a:2| true) (and |__fml:s:2| true))) (or $x62 (and (and |__new_fml:r_a:2| true) (and |__fml:r:2| true))) (or $x180 $x73))))))))))))
(assert
 (and (not or)))
(check-sat)
